784 1568
1 2 3
1 29 3
2 3 2
2 30 4
3 4 2
3 31 4
4 5 1
4 32 3
5 6 2
5 33 5
6 7 1
6 34 5
7 8 2
7 35 4
8 9 2
8 36 1
9 10 5
9 37 4
10 11 5
10 38 4
11 12 2
11 39 5
12 13 2
12 40 5
13 14 1
13 41 4
14 15 3
14 42 2
15 16 1
15 43 3
16 17 3
16 44 5
17 18 3
17 45 3
18 19 1
18 46 2
19 20 2
19 47 5
20 21 1
20 48 3
21 22 1
21 49 5
22 23 1
22 50 3
23 24 4
23 51 2
24 25 5
24 52 3
25 26 1
25 53 2
26 27 1
26 54 3
27 28 5
27 55 3
28 56 4
29 30 3
29 57 5
30 31 4
30 58 2
31 32 2
31 59 4
32 33 2
32 60 5
33 34 3
33 61 2
34 35 5
34 62 3
35 36 4
35 63 4
36 37 5
36 64 5
37 38 4
37 65 3
38 39 2
38 66 1
39 40 2
39 67 1
40 41 1
40 68 1
41 42 3
41 69 1
42 43 4
42 70 5
43 44 3
43 71 3
44 45 4
44 72 3
45 46 3
45 73 2
46 47 2
46 74 2
47 48 4
47 75 2
48 49 2
48 76 5
49 50 2
49 77 1
50 51 4
50 78 1
51 52 1
51 79 5
52 53 5
52 80 5
53 54 5
53 81 5
54 55 1
54 82 1
55 56 5
55 83 3
56 84 3
57 58 3
57 85 5
58 59 5
58 86 2
59 60 1
59 87 3
60 61 4
60 88 2
61 62 5
61 89 4
62 63 4
62 90 5
63 64 2
63 91 4
64 65 1
64 92 5
65 66 2
65 93 5
66 67 3
66 94 4
67 68 5
67 95 3
68 69 4
68 96 2
69 70 5
69 97 4
70 71 3
70 98 5
71 72 4
71 99 5
72 73 1
72 100 3
73 74 2
73 101 3
74 75 1
74 102 1
75 76 4
75 103 3
76 77 2
76 104 1
77 78 1
77 105 4
78 79 3
78 106 1
79 80 3
79 107 1
80 81 4
80 108 4
81 82 3
81 109 2
82 83 4
82 110 4
83 84 3
83 111 5
84 112 5
85 86 3
85 113 2
86 87 5
86 114 2
87 88 4
87 115 5
88 89 4
88 116 4
89 90 3
89 117 5
90 91 3
90 118 2
91 92 3
91 119 1
92 93 5
92 120 4
93 94 3
93 121 3
94 95 5
94 122 3
95 96 3
95 123 3
96 97 2
96 124 4
97 98 5
97 125 2
98 99 2
98 126 4
99 100 5
99 127 2
100 101 2
100 128 3
101 102 3
101 129 1
102 103 5
102 130 4
103 104 5
103 131 3
104 105 4
104 132 5
105 106 4
105 133 1
106 107 4
106 134 3
107 108 1
107 135 4
108 109 2
108 136 3
109 110 5
109 137 5
110 111 4
110 138 3
111 112 4
111 139 4
112 140 2
113 114 3
113 141 4
114 115 3
114 142 2
115 116 5
115 143 2
116 117 4
116 144 3
117 118 2
117 145 3
118 119 2
118 146 5
119 120 4
119 147 5
120 121 5
120 148 2
121 122 1
121 149 1
122 123 1
122 150 4
123 124 2
123 151 4
124 125 4
124 152 1
125 126 2
125 153 1
126 127 1
126 154 4
127 128 2
127 155 1
128 129 4
128 156 4
129 130 1
129 157 4
130 131 1
130 158 5
131 132 1
131 159 4
132 133 3
132 160 5
133 134 3
133 161 1
134 135 3
134 162 4
135 136 3
135 163 1
136 137 1
136 164 5
137 138 1
137 165 1
138 139 4
138 166 2
139 140 3
139 167 1
140 168 2
141 142 2
141 169 2
142 143 3
142 170 4
143 144 4
143 171 3
144 145 2
144 172 5
145 146 2
145 173 3
146 147 2
146 174 5
147 148 3
147 175 2
148 149 5
148 176 4
149 150 3
149 177 1
150 151 4
150 178 2
151 152 3
151 179 2
152 153 1
152 180 4
153 154 5
153 181 1
154 155 2
154 182 5
155 156 3
155 183 5
156 157 1
156 184 2
157 158 3
157 185 5
158 159 3
158 186 2
159 160 3
159 187 5
160 161 2
160 188 3
161 162 5
161 189 2
162 163 2
162 190 5
163 164 3
163 191 5
164 165 2
164 192 1
165 166 4
165 193 5
166 167 1
166 194 5
167 168 2
167 195 5
168 196 5
169 170 3
169 197 2
170 171 3
170 198 2
171 172 3
171 199 5
172 173 1
172 200 2
173 174 1
173 201 5
174 175 4
174 202 5
175 176 1
175 203 5
176 177 4
176 204 2
177 178 1
177 205 4
178 179 2
178 206 1
179 180 4
179 207 4
180 181 2
180 208 4
181 182 1
181 209 4
182 183 1
182 210 1
183 184 5
183 211 2
184 185 2
184 212 5
185 186 2
185 213 4
186 187 4
186 214 5
187 188 5
187 215 2
188 189 3
188 216 3
189 190 3
189 217 3
190 191 3
190 218 1
191 192 2
191 219 3
192 193 3
192 220 3
193 194 4
193 221 1
194 195 4
194 222 4
195 196 3
195 223 4
196 224 1
197 198 2
197 225 5
198 199 5
198 226 1
199 200 5
199 227 1
200 201 4
200 228 5
201 202 5
201 229 5
202 203 2
202 230 4
203 204 2
203 231 3
204 205 2
204 232 2
205 206 4
205 233 1
206 207 3
206 234 4
207 208 5
207 235 1
208 209 5
208 236 5
209 210 2
209 237 5
210 211 4
210 238 2
211 212 4
211 239 3
212 213 4
212 240 5
213 214 3
213 241 4
214 215 2
214 242 5
215 216 1
215 243 2
216 217 1
216 244 5
217 218 4
217 245 1
218 219 3
218 246 5
219 220 1
219 247 4
220 221 2
220 248 1
221 222 4
221 249 1
222 223 3
222 250 4
223 224 2
223 251 2
224 252 4
225 226 5
225 253 3
226 227 5
226 254 1
227 228 1
227 255 4
228 229 1
228 256 1
229 230 2
229 257 3
230 231 2
230 258 4
231 232 1
231 259 5
232 233 2
232 260 3
233 234 4
233 261 3
234 235 1
234 262 4
235 236 3
235 263 3
236 237 5
236 264 5
237 238 3
237 265 4
238 239 1
238 266 2
239 240 1
239 267 2
240 241 2
240 268 1
241 242 2
241 269 4
242 243 2
242 270 5
243 244 2
243 271 5
244 245 4
244 272 4
245 246 3
245 273 2
246 247 3
246 274 5
247 248 5
247 275 2
248 249 5
248 276 5
249 250 5
249 277 4
250 251 5
250 278 4
251 252 4
251 279 4
252 280 1
253 254 5
253 281 2
254 255 3
254 282 4
255 256 1
255 283 1
256 257 5
256 284 1
257 258 3
257 285 5
258 259 3
258 286 1
259 260 3
259 287 5
260 261 5
260 288 5
261 262 3
261 289 5
262 263 1
262 290 3
263 264 3
263 291 3
264 265 1
264 292 2
265 266 1
265 293 3
266 267 3
266 294 5
267 268 5
267 295 4
268 269 5
268 296 5
269 270 2
269 297 5
270 271 1
270 298 2
271 272 1
271 299 4
272 273 3
272 300 4
273 274 3
273 301 4
274 275 1
274 302 4
275 276 5
275 303 2
276 277 2
276 304 4
277 278 1
277 305 3
278 279 1
278 306 3
279 280 2
279 307 1
280 308 3
281 282 5
281 309 2
282 283 1
282 310 1
283 284 2
283 311 1
284 285 3
284 312 1
285 286 2
285 313 4
286 287 2
286 314 4
287 288 3
287 315 5
288 289 5
288 316 1
289 290 4
289 317 2
290 291 4
290 318 3
291 292 4
291 319 2
292 293 1
292 320 4
293 294 5
293 321 3
294 295 4
294 322 2
295 296 1
295 323 5
296 297 1
296 324 1
297 298 5
297 325 5
298 299 5
298 326 2
299 300 5
299 327 2
300 301 4
300 328 4
301 302 2
301 329 2
302 303 2
302 330 3
303 304 1
303 331 2
304 305 3
304 332 2
305 306 1
305 333 3
306 307 3
306 334 3
307 308 3
307 335 2
308 336 5
309 310 4
309 337 4
310 311 3
310 338 2
311 312 2
311 339 1
312 313 2
312 340 2
313 314 3
313 341 1
314 315 5
314 342 3
315 316 5
315 343 3
316 317 2
316 344 1
317 318 1
317 345 1
318 319 2
318 346 3
319 320 2
319 347 1
320 321 2
320 348 2
321 322 2
321 349 2
322 323 2
322 350 5
323 324 4
323 351 3
324 325 3
324 352 1
325 326 3
325 353 2
326 327 5
326 354 4
327 328 3
327 355 2
328 329 3
328 356 4
329 330 1
329 357 5
330 331 3
330 358 2
331 332 3
331 359 2
332 333 1
332 360 3
333 334 5
333 361 5
334 335 2
334 362 1
335 336 4
335 363 4
336 364 1
337 338 1
337 365 4
338 339 4
338 366 4
339 340 4
339 367 2
340 341 3
340 368 4
341 342 3
341 369 4
342 343 2
342 370 5
343 344 4
343 371 1
344 345 4
344 372 2
345 346 4
345 373 5
346 347 2
346 374 3
347 348 5
347 375 3
348 349 2
348 376 3
349 350 2
349 377 1
350 351 4
350 378 4
351 352 3
351 379 1
352 353 2
352 380 1
353 354 1
353 381 1
354 355 1
354 382 5
355 356 4
355 383 4
356 357 1
356 384 3
357 358 3
357 385 2
358 359 3
358 386 3
359 360 1
359 387 2
360 361 1
360 388 4
361 362 2
361 389 5
362 363 5
362 390 5
363 364 4
363 391 4
364 392 1
365 366 2
365 393 4
366 367 1
366 394 2
367 368 2
367 395 5
368 369 2
368 396 4
369 370 2
369 397 3
370 371 3
370 398 2
371 372 4
371 399 1
372 373 2
372 400 4
373 374 4
373 401 2
374 375 1
374 402 5
375 376 1
375 403 4
376 377 2
376 404 5
377 378 5
377 405 3
378 379 3
378 406 5
379 380 3
379 407 5
380 381 4
380 408 2
381 382 4
381 409 5
382 383 3
382 410 4
383 384 5
383 411 4
384 385 3
384 412 3
385 386 2
385 413 1
386 387 4
386 414 4
387 388 5
387 415 2
388 389 4
388 416 4
389 390 2
389 417 3
390 391 3
390 418 3
391 392 5
391 419 5
392 420 3
393 394 5
393 421 4
394 395 1
394 422 5
395 396 2
395 423 1
396 397 4
396 424 4
397 398 2
397 425 3
398 399 2
398 426 4
399 400 3
399 427 1
400 401 4
400 428 5
401 402 1
401 429 1
402 403 1
402 430 1
403 404 1
403 431 4
404 405 4
404 432 1
405 406 2
405 433 1
406 407 1
406 434 4
407 408 5
407 435 2
408 409 5
408 436 4
409 410 1
409 437 5
410 411 5
410 438 5
411 412 2
411 439 1
412 413 5
412 440 4
413 414 4
413 441 4
414 415 3
414 442 3
415 416 4
415 443 2
416 417 4
416 444 1
417 418 2
417 445 4
418 419 1
418 446 4
419 420 2
419 447 2
420 448 1
421 422 5
421 449 3
422 423 4
422 450 4
423 424 4
423 451 1
424 425 3
424 452 3
425 426 1
425 453 5
426 427 4
426 454 1
427 428 2
427 455 3
428 429 5
428 456 1
429 430 2
429 457 5
430 431 4
430 458 2
431 432 4
431 459 2
432 433 1
432 460 4
433 434 3
433 461 2
434 435 3
434 462 5
435 436 4
435 463 1
436 437 3
436 464 2
437 438 4
437 465 5
438 439 2
438 466 5
439 440 5
439 467 4
440 441 1
440 468 4
441 442 5
441 469 5
442 443 1
442 470 2
443 444 3
443 471 3
444 445 5
444 472 3
445 446 1
445 473 2
446 447 5
446 474 4
447 448 1
447 475 2
448 476 5
449 450 5
449 477 5
450 451 5
450 478 1
451 452 4
451 479 1
452 453 1
452 480 5
453 454 5
453 481 2
454 455 5
454 482 3
455 456 5
455 483 4
456 457 4
456 484 5
457 458 5
457 485 3
458 459 5
458 486 3
459 460 5
459 487 1
460 461 1
460 488 4
461 462 4
461 489 3
462 463 1
462 490 4
463 464 1
463 491 5
464 465 5
464 492 3
465 466 2
465 493 2
466 467 3
466 494 2
467 468 5
467 495 3
468 469 4
468 496 3
469 470 4
469 497 2
470 471 4
470 498 5
471 472 5
471 499 2
472 473 1
472 500 5
473 474 4
473 501 1
474 475 3
474 502 4
475 476 5
475 503 1
476 504 2
477 478 4
477 505 1
478 479 1
478 506 3
479 480 4
479 507 1
480 481 2
480 508 4
481 482 1
481 509 5
482 483 1
482 510 2
483 484 2
483 511 4
484 485 3
484 512 4
485 486 3
485 513 1
486 487 5
486 514 1
487 488 5
487 515 3
488 489 3
488 516 3
489 490 5
489 517 2
490 491 3
490 518 4
491 492 3
491 519 2
492 493 3
492 520 5
493 494 3
493 521 4
494 495 1
494 522 1
495 496 5
495 523 5
496 497 4
496 524 5
497 498 1
497 525 3
498 499 5
498 526 1
499 500 2
499 527 2
500 501 3
500 528 1
501 502 4
501 529 3
502 503 5
502 530 5
503 504 3
503 531 5
504 532 2
505 506 4
505 533 4
506 507 1
506 534 5
507 508 4
507 535 5
508 509 1
508 536 1
509 510 2
509 537 2
510 511 1
510 538 1
511 512 3
511 539 1
512 513 2
512 540 1
513 514 4
513 541 4
514 515 3
514 542 2
515 516 1
515 543 3
516 517 2
516 544 3
517 518 3
517 545 4
518 519 2
518 546 2
519 520 4
519 547 2
520 521 1
520 548 2
521 522 2
521 549 4
522 523 1
522 550 5
523 524 2
523 551 1
524 525 3
524 552 5
525 526 3
525 553 1
526 527 5
526 554 2
527 528 5
527 555 5
528 529 4
528 556 1
529 530 3
529 557 2
530 531 5
530 558 2
531 532 5
531 559 2
532 560 5
533 534 3
533 561 2
534 535 2
534 562 3
535 536 1
535 563 2
536 537 4
536 564 1
537 538 3
537 565 3
538 539 4
538 566 2
539 540 3
539 567 3
540 541 2
540 568 5
541 542 5
541 569 2
542 543 4
542 570 5
543 544 5
543 571 2
544 545 4
544 572 3
545 546 3
545 573 1
546 547 2
546 574 4
547 548 1
547 575 1
548 549 1
548 576 5
549 550 5
549 577 4
550 551 4
550 578 4
551 552 1
551 579 5
552 553 5
552 580 4
553 554 3
553 581 1
554 555 3
554 582 4
555 556 1
555 583 2
556 557 4
556 584 2
557 558 1
557 585 4
558 559 1
558 586 3
559 560 3
559 587 5
560 588 3
561 562 1
561 589 5
562 563 5
562 590 3
563 564 3
563 591 4
564 565 3
564 592 5
565 566 5
565 593 4
566 567 1
566 594 3
567 568 5
567 595 3
568 569 1
568 596 5
569 570 4
569 597 5
570 571 3
570 598 2
571 572 1
571 599 5
572 573 4
572 600 2
573 574 4
573 601 5
574 575 1
574 602 4
575 576 3
575 603 1
576 577 3
576 604 4
577 578 5
577 605 2
578 579 2
578 606 4
579 580 2
579 607 1
580 581 2
580 608 2
581 582 2
581 609 5
582 583 5
582 610 1
583 584 1
583 611 3
584 585 1
584 612 4
585 586 3
585 613 5
586 587 2
586 614 5
587 588 4
587 615 5
588 616 5
589 590 4
589 617 4
590 591 1
590 618 1
591 592 1
591 619 1
592 593 4
592 620 3
593 594 4
593 621 1
594 595 4
594 622 5
595 596 5
595 623 4
596 597 1
596 624 1
597 598 1
597 625 1
598 599 3
598 626 3
599 600 5
599 627 1
600 601 4
600 628 4
601 602 1
601 629 2
602 603 2
602 630 3
603 604 2
603 631 2
604 605 4
604 632 4
605 606 3
605 633 4
606 607 4
606 634 1
607 608 5
607 635 4
608 609 4
608 636 1
609 610 1
609 637 3
610 611 1
610 638 4
611 612 4
611 639 4
612 613 4
612 640 1
613 614 1
613 641 4
614 615 1
614 642 1
615 616 1
615 643 5
616 644 3
617 618 5
617 645 3
618 619 3
618 646 5
619 620 4
619 647 1
620 621 2
620 648 2
621 622 3
621 649 2
622 623 4
622 650 2
623 624 3
623 651 1
624 625 3
624 652 1
625 626 4
625 653 4
626 627 4
626 654 5
627 628 3
627 655 1
628 629 3
628 656 5
629 630 4
629 657 2
630 631 2
630 658 5
631 632 4
631 659 4
632 633 1
632 660 3
633 634 3
633 661 3
634 635 5
634 662 3
635 636 5
635 663 3
636 637 3
636 664 1
637 638 3
637 665 2
638 639 3
638 666 1
639 640 2
639 667 2
640 641 1
640 668 2
641 642 2
641 669 3
642 643 5
642 670 2
643 644 1
643 671 1
644 672 4
645 646 5
645 673 4
646 647 1
646 674 1
647 648 4
647 675 4
648 649 4
648 676 5
649 650 1
649 677 3
650 651 4
650 678 4
651 652 1
651 679 1
652 653 3
652 680 4
653 654 2
653 681 2
654 655 2
654 682 1
655 656 3
655 683 4
656 657 3
656 684 5
657 658 5
657 685 5
658 659 1
658 686 3
659 660 5
659 687 2
660 661 4
660 688 1
661 662 2
661 689 1
662 663 2
662 690 3
663 664 1
663 691 4
664 665 4
664 692 1
665 666 5
665 693 2
666 667 1
666 694 3
667 668 1
667 695 4
668 669 1
668 696 1
669 670 5
669 697 1
670 671 4
670 698 5
671 672 5
671 699 3
672 700 5
673 674 5
673 701 2
674 675 3
674 702 4
675 676 5
675 703 3
676 677 5
676 704 2
677 678 4
677 705 3
678 679 5
678 706 3
679 680 1
679 707 1
680 681 4
680 708 5
681 682 4
681 709 5
682 683 3
682 710 4
683 684 5
683 711 1
684 685 3
684 712 4
685 686 2
685 713 1
686 687 4
686 714 4
687 688 1
687 715 2
688 689 4
688 716 3
689 690 3
689 717 5
690 691 5
690 718 2
691 692 2
691 719 1
692 693 5
692 720 1
693 694 3
693 721 2
694 695 1
694 722 3
695 696 1
695 723 4
696 697 4
696 724 4
697 698 4
697 725 3
698 699 5
698 726 2
699 700 4
699 727 5
700 728 5
701 702 1
701 729 2
702 703 4
702 730 1
703 704 2
703 731 3
704 705 1
704 732 3
705 706 5
705 733 2
706 707 3
706 734 5
707 708 3
707 735 1
708 709 1
708 736 4
709 710 5
709 737 3
710 711 4
710 738 4
711 712 4
711 739 2
712 713 5
712 740 3
713 714 1
713 741 4
714 715 4
714 742 2
715 716 4
715 743 2
716 717 3
716 744 4
717 718 5
717 745 3
718 719 1
718 746 4
719 720 4
719 747 3
720 721 3
720 748 5
721 722 3
721 749 2
722 723 2
722 750 4
723 724 3
723 751 1
724 725 3
724 752 2
725 726 5
725 753 1
726 727 1
726 754 4
727 728 1
727 755 3
728 756 1
729 730 3
729 757 4
730 731 5
730 758 4
731 732 5
731 759 3
732 733 1
732 760 3
733 734 2
733 761 1
734 735 3
734 762 3
735 736 3
735 763 5
736 737 3
736 764 4
737 738 2
737 765 4
738 739 5
738 766 3
739 740 5
739 767 1
740 741 2
740 768 3
741 742 3
741 769 1
742 743 5
742 770 4
743 744 2
743 771 2
744 745 3
744 772 3
745 746 5
745 773 3
746 747 2
746 774 5
747 748 4
747 775 2
748 749 1
748 776 3
749 750 2
749 777 2
750 751 1
750 778 1
751 752 3
751 779 1
752 753 3
752 780 5
753 754 1
753 781 2
754 755 3
754 782 4
755 756 4
755 783 3
756 784 5
757 758 4
758 759 2
759 760 4
760 761 4
761 762 2
762 763 1
763 764 2
764 765 5
765 766 5
766 767 3
767 768 5
768 769 4
769 770 1
770 771 2
771 772 3
772 773 4
773 774 5
774 775 2
775 776 5
776 777 5
777 778 5
778 779 3
779 780 1
780 781 5
781 782 3
782 783 3
783 784 4
1 757 3
2 758 4
3 759 5
4 760 3
5 761 2
6 762 5
7 763 1
8 764 5
9 765 1
10 766 4
11 767 2
12 768 3
13 769 4
14 770 3
15 771 2
16 772 5
17 773 1
18 774 1
19 775 1
20 776 2
21 777 3
22 778 1
23 779 5
24 780 3
25 781 2
26 782 3
27 783 2
28 784 2
1 28 1
29 56 3
57 84 5
85 112 2
113 140 2
141 168 4
169 196 5
197 224 3
225 252 3
253 280 4
281 308 4
309 336 2
337 364 3
365 392 1
393 420 3
421 448 4
449 476 4
477 504 3
505 532 1
533 560 5
561 588 1
589 616 5
617 644 4
645 672 4
673 700 5
701 728 4
729 756 1
757 784 5
